(set-logic QF_SLIA)
(set-option :produce-models true)
(declare-const X String)
; /^\/\d{10}\/\d{10}\.tpl$/U
(assert (str.in_re X (re.++ (str.to_re "//") ((_ re.loop 10 10) (re.range "0" "9")) (str.to_re "/") ((_ re.loop 10 10) (re.range "0" "9")) (str.to_re ".tpl/U\u{0a}"))))
; kl\x2Esearch\x2Eneed2find\x2Ecom\ssource%3Dultrasearch136%26campaign%3Dsnap
(assert (str.in_re X (re.++ (str.to_re "kl.search.need2find.com") (re.union (str.to_re " ") (str.to_re "\u{09}") (str.to_re "\u{0a}") (str.to_re "\u{0c}") (str.to_re "\u{0d}")) (str.to_re "source%3Dultrasearch136%26campaign%3Dsnap\u{0a}"))))
; Subject\x3A\d+media\x2Edxcdirect\x2Ecom\.smx\?PASSW=SAHHost\x3A
(assert (not (str.in_re X (re.++ (str.to_re "Subject:") (re.+ (re.range "0" "9")) (str.to_re "media.dxcdirect.com.smx?PASSW=SAHHost:\u{0a}")))))
; ^[AHJ-NPR-UW-Z]{2}\s?[0-9]{3}\s?[AHJ-NPR-UW-Z]{2}$
(assert (str.in_re X (re.++ ((_ re.loop 2 2) (re.union (str.to_re "A") (str.to_re "H") (re.range "J" "N") (str.to_re "P") (re.range "R" "U") (re.range "W" "Z"))) (re.opt (re.union (str.to_re " ") (str.to_re "\u{09}") (str.to_re "\u{0a}") (str.to_re "\u{0c}") (str.to_re "\u{0d}"))) ((_ re.loop 3 3) (re.range "0" "9")) (re.opt (re.union (str.to_re " ") (str.to_re "\u{09}") (str.to_re "\u{0a}") (str.to_re "\u{0c}") (str.to_re "\u{0d}"))) ((_ re.loop 2 2) (re.union (str.to_re "A") (str.to_re "H") (re.range "J" "N") (str.to_re "P") (re.range "R" "U") (re.range "W" "Z"))) (str.to_re "\u{0a}"))))
; \x2Fcs\x2Fpop4\x2FA-Spywww\x2Eyoogee\x2Ecom
(assert (not (str.in_re X (str.to_re "/cs/pop4/A-Spywww.yoogee.com\u{13}\u{0a}"))))
(check-sat)
